# Objective value = 7.0509099999999535e+03
I_0_0 2318
I_0_1 2.9170000000000095e+03
I_0_2 2.4290000000000023e+03
I_0_3 3.4279999999999973e+03
I_1_0 57
I_1_1 -6.3282712403633923e-15
I_1_2 57
I_1_3 -6.3282712403633923e-15
I_2_0 106
I_2_1 53
I_2_2 1.0600000000000060e+02
I_2_3 53.0000000000006
I_3_0 79
I_3_1 0
I_3_2 79
I_3_3 8.7707618945387367e-15
I_4_0 64
I_4_1 32
I_4_2 64
I_4_3 32
I_5_0 29
I_5_1 -4.1597836286655365e-12
I_5_2 29
I_5_3 0
I_6_0 36
I_6_1 18.0000000000001
I_6_2 3.5999999999998373e+01
I_6_3 1.7999999999998373e+01
I_7_0 148
I_7_1 74
I_7_2 148
I_7_3 74
I_8_0 42
I_8_1 21
I_8_2 42
I_8_3 21
I_9_0 98
I_9_1 98
I_9_2 98
I_9_3 1.3600232051658168e-14
I_10_0 85
I_10_1 0
I_10_2 85
I_10_3 0
I_11_0 106
I_11_1 106
I_11_2 5.3000000000000277e+01
I_11_3 2.7711166694643907e-13
I_12_0 116
I_12_1 116
I_12_2 58
I_12_3 0
I_13_0 54
I_13_1 54
I_13_2 54
I_13_3 6.7446048745978260e-14
I_14_0 13
I_14_1 5.1363080455502086e-13
I_14_2 1.2999999999999492e+01
I_14_3 5.1363080455502086e-13
I_15_0 68
I_15_1 68
I_15_2 68
I_15_3 0
I_16_0 23
I_16_1 0
I_16_2 2.2999999999999854e+01
I_16_3 1.4643479665641412e-13
I_17_0 65
I_17_1 2.1649348980190553e-14
I_17_2 65
I_17_3 2.6114527207354854e-12
I_18_0 69
I_18_1 69
I_18_2 69
I_18_3 0
I_19_0 39
I_19_1 2.1649348980190553e-15
I_19_2 39
I_19_3 2.1649348980190553e-15
I_20_0 22
I_20_1 1.0999999999994690e+01
I_20_2 2.1999999999999911e+01
I_20_3 1.0999999999999918e+01
q_1_0 -6.3282712403633923e-15
q_1_1 114
q_1_2 -6.3282712403633923e-15
q_2_0 0
q_2_1 106
q_2_2 0
q_3_0 0
q_3_1 158
q_3_2 8.7707618945387367e-15
q_4_0 0
q_4_1 64
q_4_2 0
q_5_0 -4.1597836286655365e-12
q_5_1 5.8000000000004164e+01
q_5_2 0
q_6_0 9.8421271133020127e-14
q_6_1 3.5999999999998280e+01
q_6_2 0
q_7_0 0
q_7_1 148
q_7_2 0
q_8_0 0
q_8_1 42
q_8_2 0
q_9_0 98
q_9_1 98
q_9_2 1.3600232051658168e-14
q_10_0 0
q_10_1 170
q_10_2 0
q_11_0 53
q_11_1 2.7711166694643907e-13
q_11_2 0
q_12_0 58
q_12_1 0
q_12_2 0
q_13_0 54
q_13_1 54
q_13_2 6.7446048745978260e-14
q_14_0 5.1363080455502086e-13
q_14_1 2.5999999999998977e+01
q_14_2 1.0216688606234925e-12
q_15_0 68
q_15_1 68
q_15_2 0
q_16_0 0
q_16_1 4.5999999999999858e+01
q_16_2 2.9209605748723468e-13
q_17_0 2.1649348980190553e-14
q_17_1 1.2999999999999997e+02
q_17_2 2.6114527207354854e-12
q_18_0 69
q_18_1 69
q_18_2 0
q_19_0 2.1649348980190553e-15
q_19_1 78
q_19_2 2.1649348980190553e-15
q_20_0 -5.3093640595136549e-12
q_20_1 2.2000000000005389e+01
q_20_2 7.1054273576010019e-15
y_0_0 1
y_0_1 1
y_0_2 0
y_1_0 -1.1102230246251565e-16
y_1_1 1
y_1_2 -1.1102230246251565e-16
y_2_0 0
y_2_1 1
y_2_2 0
y_3_0 0
y_3_1 1
y_3_2 1.1102230246251565e-16
y_4_0 0
y_4_1 1
y_4_2 0
y_5_0 -1.4344081478157023e-13
y_5_1 1
y_5_2 0
y_6_0 5.4678483962788960e-15
y_6_1 0.999999999999952
y_6_2 0
y_7_0 0
y_7_1 1
y_7_2 0
y_8_0 0
y_8_1 1
y_8_2 0
y_9_0 1
y_9_1 1
y_9_2 1.3877787807814457e-16
y_10_0 0
y_10_1 1
y_10_2 0
y_11_0 1
y_11_1 8.61135583019513e-15
y_11_2 0
y_12_0 1
y_12_1 0
y_12_2 0
y_13_0 1
y_13_1 1
y_13_2 1.2490009027033011e-15
y_14_0 3.9510061888847758e-14
y_14_1 9.9999999999996092e-01
y_14_2 3.9510061888847758e-14
y_15_0 1
y_15_1 1
y_15_2 0
y_16_0 0
y_16_1 9.9999999999999367e-01
y_16_2 6.3667302894093096e-15
y_17_0 3.3306690738754696e-16
y_17_1 1
y_17_2 4.0176195703622852e-14
y_18_0 1
y_18_1 1
y_18_2 0
y_19_0 5.5511151231257827e-17
y_19_1 1
y_19_2 5.5511151231257827e-17
y_20_0 -4.8266945995578681e-13
y_20_1 1
y_20_2 1.9428902930940239e-16
x_0_1_0 0
x_0_1_1 0
x_0_1_2 0
x_0_2_0 0
x_0_2_1 0
x_0_2_2 0
x_0_3_0 0
x_0_3_1 0
x_0_3_2 0
x_0_4_0 0
x_0_4_1 0
x_0_4_2 0
x_0_5_0 0
x_0_5_1 0
x_0_5_2 0
x_0_6_0 0
x_0_6_1 0
x_0_6_2 0
x_0_7_0 0
x_0_7_1 0
x_0_7_2 0
x_0_8_0 0
x_0_8_1 0
x_0_8_2 0
x_0_9_0 0
x_0_9_1 0
x_0_9_2 0
x_0_10_0 0
x_0_10_1 0
x_0_10_2 0
x_0_11_0 0
x_0_11_1 0
x_0_11_2 0
x_0_12_0 9.9999999999998446e-01
x_0_12_1 0
x_0_12_2 0
x_0_13_0 0
x_0_13_1 0
x_0_13_2 0
x_0_14_0 0
x_0_14_1 0
x_0_14_2 0
x_0_15_0 0
x_0_15_1 0
x_0_15_2 0
x_0_16_0 0
x_0_16_1 0
x_0_16_2 0
x_0_17_0 0
x_0_17_1 0
x_0_17_2 0
x_0_18_0 1.0000000000004612e+00
x_0_18_1 -8.8451468371886222e-13
x_0_18_2 0
x_0_19_0 0
x_0_19_1 1.0000000000004707e+00
x_0_19_2 1.1102230246251565e-16
x_0_20_0 -4.4625414474808167e-13
x_0_20_1 1.0000000000004139e+00
x_0_20_2 3.8857805861880479e-16
x_1_2_0 -1.1102230246251565e-16
x_1_2_1 1
x_1_2_2 -2.2204460492503131e-16
x_1_3_0 0
x_1_3_1 -9.0553739707556425e-13
x_1_3_2 0
x_1_4_0 0
x_1_4_1 -1.1102230246251565e-16
x_1_4_2 0
x_1_5_0 0
x_1_5_1 0
x_1_5_2 0
x_1_6_0 0
x_1_6_1 9.9999999999995182e-01
x_1_6_2 0
x_1_7_0 -1.1102230246251565e-16
x_1_7_1 8.9709970208841306e-13
x_1_7_2 0
x_1_8_0 0
x_1_8_1 0
x_1_8_2 0
x_1_9_0 0
x_1_9_1 5.4456439357863928e-14
x_1_9_2 0
x_1_10_0 0
x_1_10_1 0
x_1_10_2 0
x_1_11_0 0
x_1_11_1 0
x_1_11_2 0
x_1_12_0 0
x_1_12_1 0
x_1_12_2 0
x_1_13_0 0
x_1_13_1 0
x_1_13_2 0
x_1_14_0 0
x_1_14_1 0
x_1_14_2 0
x_1_15_0 0
x_1_15_1 0
x_1_15_2 0
x_1_16_0 0
x_1_16_1 0
x_1_16_2 0
x_1_17_0 0
x_1_17_1 0
x_1_17_2 0
x_1_18_0 0
x_1_18_1 0
x_1_18_2 0
x_1_19_0 0
x_1_19_1 0
x_1_19_2 0
x_1_20_0 0
x_1_20_1 0
x_1_20_2 0
x_2_3_0 0
x_2_3_1 1
x_2_3_2 2.2204460492503131e-16
x_2_4_0 -1.1055045767704996e-13
x_2_4_1 0
x_2_4_2 0
x_2_5_0 0
x_2_5_1 0
x_2_5_2 0
x_2_6_0 0
x_2_6_1 0
x_2_6_2 0
x_2_7_0 1.1021739076966242e-13
x_2_7_1 0
x_2_7_2 0
x_2_8_0 0
x_2_8_1 0
x_2_8_2 0
x_2_9_0 0
x_2_9_1 0
x_2_9_2 0
x_2_10_0 0
x_2_10_1 0
x_2_10_2 0
x_2_11_0 0
x_2_11_1 0
x_2_11_2 0
x_2_12_0 0
x_2_12_1 0
x_2_12_2 0
x_2_13_0 0
x_2_13_1 0
x_2_13_2 0
x_2_14_0 0
x_2_14_1 0
x_2_14_2 0
x_2_15_0 0
x_2_15_1 0
x_2_15_2 0
x_2_16_0 0
x_2_16_1 0
x_2_16_2 0
x_2_17_0 0
x_2_17_1 0
x_2_17_2 0
x_2_18_0 0
x_2_18_1 0
x_2_18_2 0
x_2_19_0 0
x_2_19_1 0
x_2_19_2 0
x_2_20_0 0
x_2_20_1 0
x_2_20_2 0
x_3_4_0 1.1066147997951248e-13
x_3_4_1 1
x_3_4_2 0
x_3_5_0 0
x_3_5_1 0
x_3_5_2 0
x_3_6_0 0
x_3_6_1 0
x_3_6_2 0
x_3_7_0 -1.1066147997951248e-13
x_3_7_1 0
x_3_7_2 0
x_3_8_0 0
x_3_8_1 0
x_3_8_2 0
x_3_9_0 0
x_3_9_1 0
x_3_9_2 0
x_3_10_0 0
x_3_10_1 8.9709970208841306e-13
x_3_10_2 -8.03523914072457e-14
x_3_11_0 0
x_3_11_1 0
x_3_11_2 0
x_3_12_0 0
x_3_12_1 0
x_3_12_2 0
x_3_13_0 0
x_3_13_1 0
x_3_13_2 0
x_3_14_0 0
x_3_14_1 0
x_3_14_2 8.03523914072457e-14
x_3_15_0 0
x_3_15_1 0
x_3_15_2 0
x_3_16_0 0
x_3_16_1 0
x_3_16_2 0
x_3_17_0 0
x_3_17_1 0
x_3_17_2 0
x_3_18_0 0
x_3_18_1 0
x_3_18_2 0
x_3_19_0 0
x_3_19_1 0
x_3_19_2 0
x_3_20_0 0
x_3_20_1 0
x_3_20_2 0
x_4_5_0 0
x_4_5_1 0
x_4_5_2 0
x_4_6_0 0
x_4_6_1 0
x_4_6_2 0
x_4_7_0 -1.1102230246251565e-16
x_4_7_1 9.9999999999999989e-01
x_4_7_2 0
x_4_8_0 0
x_4_8_1 0
x_4_8_2 0
x_4_9_0 0
x_4_9_1 0
x_4_9_2 0
x_4_10_0 0
x_4_10_1 0
x_4_10_2 0
x_4_11_0 0
x_4_11_1 0
x_4_11_2 0
x_4_12_0 0
x_4_12_1 0
x_4_12_2 0
x_4_13_0 0
x_4_13_1 0
x_4_13_2 0
x_4_14_0 0
x_4_14_1 0
x_4_14_2 0
x_4_15_0 0
x_4_15_1 0
x_4_15_2 0
x_4_16_0 0
x_4_16_1 0
x_4_16_2 0
x_4_17_0 0
x_4_17_1 0
x_4_17_2 0
x_4_18_0 0
x_4_18_1 0
x_4_18_2 0
x_4_19_0 0
x_4_19_1 0
x_4_19_2 0
x_4_20_0 0
x_4_20_1 0
x_4_20_2 0
x_5_6_0 0
x_5_6_1 9.9999999999993183e-01
x_5_6_2 0
x_5_7_0 0
x_5_7_1 0
x_5_7_2 0
x_5_8_0 0
x_5_8_1 1
x_5_8_2 -2.9143354396410359e-16
x_5_9_0 -5.7731597280508140e-15
x_5_9_1 0
x_5_9_2 -1.3045120539345589e-15
x_5_10_0 0
x_5_10_1 0
x_5_10_2 0
x_5_11_0 0
x_5_11_1 0
x_5_11_2 0
x_5_12_0 0
x_5_12_1 0
x_5_12_2 -1.2490009027033011e-15
x_5_13_0 0
x_5_13_1 6.9833028248922346e-14
x_5_13_2 1.2490009027033011e-15
x_5_14_0 0
x_5_14_1 0
x_5_14_2 0
x_5_15_0 0
x_5_15_1 0
x_5_15_2 0
x_5_16_0 0
x_5_16_1 0
x_5_16_2 0
x_5_17_0 0
x_5_17_1 0
x_5_17_2 0
x_5_18_0 0
x_5_18_1 0
x_5_18_2 0
x_5_19_0 0
x_5_19_1 0
x_5_19_2 0
x_5_20_0 0
x_5_20_1 0
x_5_20_2 0
x_6_7_0 0
x_6_7_1 0
x_6_7_2 0
x_6_8_0 1.6894030111599587e-13
x_6_8_1 3.4416913763379853e-15
x_6_8_2 0
x_6_9_0 -1.6325040811479195e-13
x_6_9_1 0
x_6_9_2 0
x_6_10_0 0
x_6_10_1 0
x_6_10_2 0
x_6_11_0 0
x_6_11_1 0
x_6_11_2 0
x_6_12_0 5.9396931817445875e-15
x_6_12_1 0
x_6_12_2 0
x_6_13_0 -5.5511151231257827e-16
x_6_13_1 0
x_6_13_2 0
x_6_14_0 0
x_6_14_1 0
x_6_14_2 0
x_6_15_0 0
x_6_15_1 0
x_6_15_2 0
x_6_16_0 0
x_6_16_1 0
x_6_16_2 0
x_6_17_0 0
x_6_17_1 0
x_6_17_2 0
x_6_18_0 0
x_6_18_1 0
x_6_18_2 0
x_6_19_0 0
x_6_19_1 0
x_6_19_2 0
x_6_20_0 0
x_6_20_1 0
x_6_20_2 0
x_7_8_0 0
x_7_8_1 0
x_7_8_2 0
x_7_9_0 0
x_7_9_1 0
x_7_9_2 0
x_7_10_0 0
x_7_10_1 0
x_7_10_2 0
x_7_11_0 0
x_7_11_1 0
x_7_11_2 0
x_7_12_0 0
x_7_12_1 0
x_7_12_2 0
x_7_13_0 0
x_7_13_1 0
x_7_13_2 0
x_7_14_0 0
x_7_14_1 0.99999999999902
x_7_14_2 0
x_7_15_0 0
x_7_15_1 0
x_7_15_2 0
x_7_16_0 0
x_7_16_1 0
x_7_16_2 0
x_7_17_0 0
x_7_17_1 0
x_7_17_2 0
x_7_18_0 0
x_7_18_1 0
x_7_18_2 0
x_7_19_0 0
x_7_19_1 0
x_7_19_2 0
x_7_20_0 0
x_7_20_1 0
x_7_20_2 0
x_8_9_0 0
x_8_9_1 9.9999999999999678e-01
x_8_9_2 2.9143354396410359e-16
x_8_10_0 0
x_8_10_1 0
x_8_10_2 0
x_8_11_0 0
x_8_11_1 0
x_8_11_2 0
x_8_12_0 0
x_8_12_1 0
x_8_12_2 0
x_8_13_0 -1.6894030111599587e-13
x_8_13_1 0
x_8_13_2 0
x_8_14_0 0
x_8_14_1 0
x_8_14_2 0
x_8_15_0 0
x_8_15_1 0
x_8_15_2 0
x_8_16_0 0
x_8_16_1 0
x_8_16_2 0
x_8_17_0 0
x_8_17_1 0
x_8_17_2 0
x_8_18_0 0
x_8_18_1 0
x_8_18_2 0
x_8_19_0 0
x_8_19_1 0
x_8_19_2 0
x_8_20_0 0
x_8_20_1 0
x_8_20_2 0
x_9_10_0 0
x_9_10_1 0
x_9_10_2 0
x_9_11_0 1
x_9_11_1 -5.4123372450476381e-16
x_9_11_2 1.2490009027033011e-15
x_9_12_0 0
x_9_12_1 0
x_9_12_2 0
x_9_13_0 1.0000000000003051e+00
x_9_13_1 9.9999999999993938e-01
x_9_13_2 0
x_9_14_0 0
x_9_14_1 0
x_9_14_2 0
x_9_15_0 0
x_9_15_1 0
x_9_15_2 0
x_9_16_0 0
x_9_16_1 0
x_9_16_2 0
x_9_17_0 0
x_9_17_1 0
x_9_17_2 0
x_9_18_0 0
x_9_18_1 0
x_9_18_2 0
x_9_19_0 0
x_9_19_1 0
x_9_19_2 0
x_9_20_0 0
x_9_20_1 0
x_9_20_2 0
x_10_11_0 0
x_10_11_1 0
x_10_11_2 0
x_10_12_0 0
x_10_12_1 0
x_10_12_2 0
x_10_13_0 0
x_10_13_1 0
x_10_13_2 0
x_10_14_0 0
x_10_14_1 9.9999999999910683e-01
x_10_14_2 0
x_10_15_0 0
x_10_15_1 0
x_10_15_2 0
x_10_16_0 -2.7755575615628914e-17
x_10_16_1 0
x_10_16_2 0
x_10_17_0 0
x_10_17_1 9.9999999999992273e-01
x_10_17_2 8.03523914072457e-14
x_10_18_0 0
x_10_18_1 0
x_10_18_2 0
x_10_19_0 0
x_10_19_1 0
x_10_19_2 0
x_10_20_0 0
x_10_20_1 0
x_10_20_2 0
x_11_12_0 0
x_11_12_1 0
x_11_12_2 0
x_11_13_0 -2.7755575615628914e-17
x_11_13_1 -1.3183898417423734e-15
x_11_13_2 0
x_11_14_0 0
x_11_14_1 0
x_11_14_2 0
x_11_15_0 1
x_11_15_1 6.3143934525555778e-15
x_11_15_2 -1.2490009027033011e-15
x_11_16_0 0
x_11_16_1 0
x_11_16_2 0
x_11_17_0 0
x_11_17_1 0
x_11_17_2 0
x_11_18_0 0
x_11_18_1 0
x_11_18_2 0
x_11_19_0 0
x_11_19_1 0
x_11_19_2 0
x_11_20_0 0
x_11_20_1 0
x_11_20_2 0
x_12_13_0 1
x_12_13_1 0
x_12_13_2 1.2490009027033011e-15
x_12_14_0 0
x_12_14_1 0
x_12_14_2 0
x_12_15_0 0
x_12_15_1 0
x_12_15_2 0
x_12_16_0 0
x_12_16_1 0
x_12_16_2 0
x_12_17_0 0
x_12_17_1 0
x_12_17_2 0
x_12_18_0 6.8278716014447127e-15
x_12_18_1 0
x_12_18_2 0
x_12_19_0 1.1102230246251565e-16
x_12_19_1 0
x_12_19_2 0
x_12_20_0 0
x_12_20_1 0
x_12_20_2 0
x_13_14_0 0
x_13_14_1 0
x_13_14_2 0
x_13_15_0 0
x_13_15_1 9.9999999999999489e-01
x_13_15_2 0
x_13_16_0 0
x_13_16_1 0
x_13_16_2 0
x_13_17_0 0
x_13_17_1 0
x_13_17_2 0
x_13_18_0 0
x_13_18_1 0
x_13_18_2 0
x_13_19_0 0
x_13_19_1 0
x_13_19_2 0
x_13_20_0 0
x_13_20_1 0
x_13_20_2 0
x_14_15_0 7.9936057773011271e-15
x_14_15_1 0
x_14_15_2 4.6615489246448760e-14
x_14_16_0 6.6613381477509392e-15
x_14_16_1 9.4045140632318216e-13
x_14_16_2 6.3667302894093096e-15
x_14_17_0 0
x_14_17_1 9.4146949458688518e-13
x_14_17_2 0
x_14_18_0 1.9440005161186491e-13
x_14_18_1 0
x_14_18_2 0
x_14_19_0 0
x_14_19_1 0
x_14_19_2 0
x_14_20_0 0
x_14_20_1 0
x_14_20_2 0
x_15_16_0 2.1108663382877722e-13
x_15_16_1 0.999999999999107
x_15_16_2 6.3667302894093096e-15
x_15_17_0 0
x_15_17_1 0
x_15_17_2 0
x_15_18_0 1.0000000000000004e+00
x_15_18_1 8.9376652813769423e-13
x_15_18_2 0
x_15_19_0 0
x_15_19_1 0
x_15_19_2 0
x_15_20_0 0
x_15_20_1 0
x_15_20_2 0
x_16_17_0 7.6771922152829575e-14
x_16_17_1 0
x_16_17_2 0
x_16_18_0 -1.5915047058001619e-13
x_16_18_1 0.999999999999995
x_16_18_2 0
x_16_19_0 0
x_16_19_1 0
x_16_19_2 0
x_16_20_0 0
x_16_20_1 0
x_16_20_2 0
x_17_18_0 0
x_17_18_1 0
x_17_18_2 0
x_17_19_0 0
x_17_19_1 0
x_17_19_2 0
x_17_20_0 0
x_17_20_1 9.9999999999905886e-01
x_17_20_2 0
x_18_19_0 0
x_18_19_1 9.9999999999953981e-01
x_18_19_2 0
x_18_20_0 -5.1908477516349194e-13
x_18_20_1 4.0795145039851377e-13
x_18_20_2 0
x_19_20_0 0
x_19_20_1 0
x_19_20_2 0
